NAME : XML100_1361_13
DIMENSION : 101
NB_CLUSTERS : 3
CLUSTERING_ALG : KMedoids
CLUSTERING_PARAMS : k(2)
CLUSTERS
1 0
2 1 4 5 6 8 9 13 17 18 19 23 26 27 29 32 37 45 47 48 50 51 52 54 58 60 61 63 64 65 68 69 70 72 75 78 80 81 86 87 88 89 90 96
3 2 3 7 10 11 12 14 15 16 20 21 22 24 25 28 30 31 33 34 35 36 38 39 40 41 42 43 44 46 49 53 55 56 57 59 62 66 67 71 73 74 76 77 79 82 83 84 85 91 92 93 94 95 97 98 99 100
EOF